peakDumbCharging = 7400; 
Machine = anon_enum(16); 
machineSpeed = [3700,3700,3700,3700,3700,3700,3700,3700,3700,3700,3700,3700,3700,3700,3700,3700]; 
machineLoad = [3700,3700,3700,3700,3700,3700,3700,3700,3700,3700,3700,3700,3700,3700,3700,3700]; 
Car = anon_enum(7); 
demandCar = [4400,4040,7320,10160,6800,9960,20080]; 
arrivalCar = [73,72,70,61,60,55,54]; 
departureCar = [75,74,73,69,64,59,62]; 
